1450
180
179
139
138
137
136
135
134
270
269
268
267
266
140
141
142
143
144
145
146
147
148
265
264
263
262
261
260
259
258
257
254
253
208
207
210
209
252
255
256
249
250
247
244
241
240
239
238
231
232
233
234
235
236
237
246
245
243
242
2
0
3
279
278
4
277
276
275
274
273
272
271
16
17
18
19
20
21
128
127
126
125
30
31
32
29
28
27
26
22
25
23
24
14
13
12
11
10
8
9
7
6
5
1
248
251
230
229
228
227
226
225
224
223
222
219
218
215
214
211
212
213
216
217
205
204
203
202
200
199
198
201
196
195
194
193
185
184
182
181
